c Hadamard matrix of dimension 4
c
c n = rows and columns = 4
c element i,j=0,...,n-1 is 1 if variable i*n+j+1-2*n True else -1
c
p cnf 187 491
17 0
-19 6 0
-20 -7 0
20 7 0
-19 20 0
-21 -8 0
21 8 0
-19 21 0
19 -6 -20 -21 0
-19 18 0
-23 -6 0
23 6 0
-22 23 0
-22 7 0
-24 -8 0
24 8 0
-22 24 0
22 -23 -7 -24 0
-22 18 0
-26 -6 0
26 6 0
-25 26 0
-27 -7 0
27 7 0
-25 27 0
-25 8 0
25 -26 -27 -8 0
-25 18 0
-18 19 22 25 0
-17 18 0
-29 10 0
-30 -11 0
30 11 0
-29 30 0
-31 -12 0
31 12 0
-29 31 0
29 -10 -30 -31 0
-29 28 0
-33 -10 0
33 10 0
-32 33 0
-32 11 0
-34 -12 0
34 12 0
-32 34 0
32 -33 -11 -34 0
-32 28 0
-36 -10 0
36 10 0
-35 36 0
-37 -11 0
37 11 0
-35 37 0
-35 12 0
35 -36 -37 -12 0
-35 28 0
-28 29 32 35 0
-17 28 0
-42 -6 0
42 6 0
-42 41 0
-10 41 0
-41 42 10 0
-40 41 0
-44 -10 0
44 10 0
-44 43 0
-6 43 0
-43 44 6 0
-40 43 0
40 -41 -43 0
-39 40 0
-7 46 0
-11 46 0
-46 7 11 0
-45 46 0
-48 -11 0
48 11 0
-48 47 0
-49 -7 0
49 7 0
-49 47 0
-47 48 49 0
-45 47 0
45 -46 -47 0
-39 45 0
-8 51 0
-12 51 0
-51 8 12 0
-50 51 0
-53 -12 0
53 12 0
-53 52 0
-54 -8 0
54 8 0
-54 52 0
-52 53 54 0
-50 52 0
50 -51 -52 0
-39 50 0
39 -40 -45 -50 0
-39 38 0
-6 57 0
-10 57 0
-57 6 10 0
-56 57 0
-59 -10 0
59 10 0
-59 58 0
-60 -6 0
60 6 0
-60 58 0
-58 59 60 0
-56 58 0
56 -57 -58 0
-55 56 0
-63 -7 0
63 7 0
-63 62 0
-11 62 0
-62 63 11 0
-61 62 0
-65 -11 0
65 11 0
-65 64 0
-7 64 0
-64 65 7 0
-61 64 0
61 -62 -64 0
-55 61 0
-8 67 0
-12 67 0
-67 8 12 0
-66 67 0
-69 -12 0
69 12 0
-69 68 0
-70 -8 0
70 8 0
-70 68 0
-68 69 70 0
-66 68 0
66 -67 -68 0
-55 66 0
55 -56 -61 -66 0
-55 38 0
-6 73 0
-10 73 0
-73 6 10 0
-72 73 0
-75 -10 0
75 10 0
-75 74 0
-76 -6 0
76 6 0
-76 74 0
-74 75 76 0
-72 74 0
72 -73 -74 0
-71 72 0
-7 78 0
-11 78 0
-78 7 11 0
-77 78 0
-80 -11 0
80 11 0
-80 79 0
-81 -7 0
81 7 0
-81 79 0
-79 80 81 0
-77 79 0
77 -78 -79 0
-71 77 0
-84 -8 0
84 8 0
-84 83 0
-12 83 0
-83 84 12 0
-82 83 0
-86 -12 0
86 12 0
-86 85 0
-8 85 0
-85 86 8 0
-82 85 0
82 -83 -85 0
-71 82 0
71 -72 -77 -82 0
-71 38 0
-38 39 55 71 0
-17 38 0
-88 14 0
-89 -15 0
89 15 0
-88 89 0
-90 -16 0
90 16 0
-88 90 0
88 -14 -89 -90 0
-88 87 0
-92 -14 0
92 14 0
-91 92 0
-91 15 0
-93 -16 0
93 16 0
-91 93 0
91 -92 -15 -93 0
-91 87 0
-95 -14 0
95 14 0
-94 95 0
-96 -15 0
96 15 0
-94 96 0
-94 16 0
94 -95 -96 -16 0
-94 87 0
-87 88 91 94 0
-17 87 0
-101 -6 0
101 6 0
-101 100 0
-14 100 0
-100 101 14 0
-99 100 0
-103 -14 0
103 14 0
-103 102 0
-6 102 0
-102 103 6 0
-99 102 0
99 -100 -102 0
-98 99 0
-7 105 0
-15 105 0
-105 7 15 0
-104 105 0
-107 -15 0
107 15 0
-107 106 0
-108 -7 0
108 7 0
-108 106 0
-106 107 108 0
-104 106 0
104 -105 -106 0
-98 104 0
-8 110 0
-16 110 0
-110 8 16 0
-109 110 0
-112 -16 0
112 16 0
-112 111 0
-113 -8 0
113 8 0
-113 111 0
-111 112 113 0
-109 111 0
109 -110 -111 0
-98 109 0
98 -99 -104 -109 0
-98 97 0
-6 116 0
-14 116 0
-116 6 14 0
-115 116 0
-118 -14 0
118 14 0
-118 117 0
-119 -6 0
119 6 0
-119 117 0
-117 118 119 0
-115 117 0
115 -116 -117 0
-114 115 0
-122 -7 0
122 7 0
-122 121 0
-15 121 0
-121 122 15 0
-120 121 0
-124 -15 0
124 15 0
-124 123 0
-7 123 0
-123 124 7 0
-120 123 0
120 -121 -123 0
-114 120 0
-8 126 0
-16 126 0
-126 8 16 0
-125 126 0
-128 -16 0
128 16 0
-128 127 0
-129 -8 0
129 8 0
-129 127 0
-127 128 129 0
-125 127 0
125 -126 -127 0
-114 125 0
114 -115 -120 -125 0
-114 97 0
-6 132 0
-14 132 0
-132 6 14 0
-131 132 0
-134 -14 0
134 14 0
-134 133 0
-135 -6 0
135 6 0
-135 133 0
-133 134 135 0
-131 133 0
131 -132 -133 0
-130 131 0
-7 137 0
-15 137 0
-137 7 15 0
-136 137 0
-139 -15 0
139 15 0
-139 138 0
-140 -7 0
140 7 0
-140 138 0
-138 139 140 0
-136 138 0
136 -137 -138 0
-130 136 0
-143 -8 0
143 8 0
-143 142 0
-16 142 0
-142 143 16 0
-141 142 0
-145 -16 0
145 16 0
-145 144 0
-8 144 0
-144 145 8 0
-141 144 0
141 -142 -144 0
-130 141 0
130 -131 -136 -141 0
-130 97 0
-97 98 114 130 0
-17 97 0
-150 -10 0
150 10 0
-150 149 0
-14 149 0
-149 150 14 0
-148 149 0
-152 -14 0
152 14 0
-152 151 0
-10 151 0
-151 152 10 0
-148 151 0
148 -149 -151 0
-147 148 0
-11 154 0
-15 154 0
-154 11 15 0
-153 154 0
-156 -15 0
156 15 0
-156 155 0
-157 -11 0
157 11 0
-157 155 0
-155 156 157 0
-153 155 0
153 -154 -155 0
-147 153 0
-12 159 0
-16 159 0
-159 12 16 0
-158 159 0
-161 -16 0
161 16 0
-161 160 0
-162 -12 0
162 12 0
-162 160 0
-160 161 162 0
-158 160 0
158 -159 -160 0
-147 158 0
147 -148 -153 -158 0
-147 146 0
-10 165 0
-14 165 0
-165 10 14 0
-164 165 0
-167 -14 0
167 14 0
-167 166 0
-168 -10 0
168 10 0
-168 166 0
-166 167 168 0
-164 166 0
164 -165 -166 0
-163 164 0
-171 -11 0
171 11 0
-171 170 0
-15 170 0
-170 171 15 0
-169 170 0
-173 -15 0
173 15 0
-173 172 0
-11 172 0
-172 173 11 0
-169 172 0
169 -170 -172 0
-163 169 0
-12 175 0
-16 175 0
-175 12 16 0
-174 175 0
-177 -16 0
177 16 0
-177 176 0
-178 -12 0
178 12 0
-178 176 0
-176 177 178 0
-174 176 0
174 -175 -176 0
-163 174 0
163 -164 -169 -174 0
-163 146 0
-10 181 0
-14 181 0
-181 10 14 0
-180 181 0
-183 -14 0
183 14 0
-183 182 0
-184 -10 0
184 10 0
-184 182 0
-182 183 184 0
-180 182 0
180 -181 -182 0
-179 180 0
-11 186 0
-15 186 0
-186 11 15 0
-185 186 0
-188 -15 0
188 15 0
-188 187 0
-189 -11 0
189 11 0
-189 187 0
-187 188 189 0
-185 187 0
185 -186 -187 0
-179 185 0
-192 -12 0
192 12 0
-192 191 0
-16 191 0
-191 192 16 0
-190 191 0
-194 -16 0
194 16 0
-194 193 0
-12 193 0
-193 194 12 0
-190 193 0
190 -191 -193 0
-179 190 0
179 -180 -185 -190 0
-179 146 0
-146 147 163 179 0
-17 146 0
17 -18 -28 -38 -87 -97 -146 0
